702 5
10 10 10 10 10 

0 0 0 0 0 0 5 2 54 66 118 170 
0 0 0 0 0 0 2 3 636 
10 4 8 2 2 2 2 7 4 
3 5 6 8 6 6 1 5 
9 5 5 8 8 4 1 6 
2 6 6 6 9 6 1 8 
9 8 7 8 6 7 1 8 
1 10 9 7 10 9 2 12 9 
4 3 7 7 6 10 1 10 
3 7 5 8 9 9 1 11 
3 4 7 5 8 10 1 13 
4 5 7 10 8 9 1 13 
3 10 6 5 10 5 1 14 
7 10 10 6 9 7 1 15 
2 7 10 5 5 9 2 17 16 
1 9 8 10 9 6 2 22 18 
7 6 8 10 10 10 1 18 
4 5 9 5 6 10 1 19 
3 9 10 10 4 7 1 20 
5 7 7 6 4 9 3 27 26 21 
10 9 5 6 7 10 2 29 23 
3 7 6 10 9 6 2 29 23 
7 9 7 8 10 7 1 24 
3 8 6 7 10 8 1 25 
5 10 10 10 10 7 2 30 28 
6 8 9 8 6 6 2 30 28 
8 10 8 10 9 7 1 29 
2 9 9 8 10 7 1 31 
3 7 4 10 8 7 1 31 
1 10 6 10 7 7 2 36 33 
5 3 3 4 4 10 1 32 
5 6 10 8 10 5 1 33 
1 7 8 10 10 10 1 34 
9 4 6 10 7 10 2 37 35 
8 10 5 5 5 8 2 42 38 
5 9 6 6 5 6 2 39 37 
6 6 10 6 6 8 2 42 40 
10 7 6 8 8 1 1 39 
8 9 10 9 6 9 1 40 
3 10 10 8 7 3 1 41 
4 7 3 10 10 10 2 47 43 
3 10 9 8 6 5 2 47 43 
8 10 8 8 6 9 1 44 
4 7 10 3 9 5 1 45 
3 6 8 7 7 7 1 46 
9 10 8 7 7 10 1 48 
7 9 9 9 4 7 1 48 
2 6 8 5 7 8 1 49 
10 10 9 6 10 10 2 52 50 
2 9 9 10 9 7 1 51 
4 6 7 5 8 10 1 53 
9 7 8 10 9 10 1 53 
0 0 0 0 0 0 1 702 
0 0 0 0 0 0 2 55 517 
3 4 0 0 0 0 2 57 56 
10 8 0 0 0 0 2 64 58 
8 10 0 0 0 0 1 58 
1 3 0 0 0 0 2 60 59 
6 10 0 0 0 0 1 61 
7 10 0 0 0 0 1 61 
8 10 0 0 0 0 1 62 
10 6 0 0 0 0 1 63 
1 7 0 0 0 0 1 65 
3 7 0 0 0 0 1 65 
0 0 0 0 0 0 5 222 264 306 348 390 
0 0 0 0 0 0 1 67 
6 2 2 6 5 3 2 74 68 
7 7 8 3 4 8 1 69 
2 6 5 10 6 10 2 70 452 
8 10 10 10 8 3 1 71 
8 10 8 6 3 3 2 76 72 
10 8 7 4 4 10 1 73 
6 10 10 7 10 10 1 75 
2 5 10 4 7 4 1 75 
6 5 8 4 9 7 1 77 
3 5 6 8 8 5 1 77 
7 7 10 10 8 9 1 78 
2 8 9 8 4 6 2 81 79 
10 9 7 7 8 10 1 80 
10 6 6 10 9 6 2 89 82 
3 9 9 8 8 10 1 82 
2 6 6 10 10 7 1 83 
6 8 4 10 7 10 1 84 
7 7 8 6 7 6 3 92 90 85 
9 7 7 10 9 5 2 97 86 
8 9 6 10 4 10 1 87 
4 6 9 8 8 5 1 88 
9 8 6 9 7 4 2 95 91 
5 5 4 4 6 9 2 102 91 
9 7 7 7 10 7 1 91 
7 7 7 6 10 6 1 93 
2 5 9 7 10 10 2 97 96 
9 10 7 10 9 6 1 94 
5 6 8 7 7 9 1 96 
7 9 8 7 7 7 3 102 100 99 
5 7 7 10 10 10 2 100 98 
2 10 8 6 5 10 1 98 
9 9 10 5 10 10 1 99 
1 8 10 4 9 5 2 109 101 
8 10 9 8 6 5 2 109 104 
2 7 9 10 8 10 1 103 
1 10 9 8 10 8 1 103 
7 6 9 10 8 9 1 104 
2 9 4 10 7 8 1 105 
6 7 7 9 5 9 2 114 106 
1 6 8 8 5 6 1 107 
10 8 6 8 10 7 1 108 
1 8 10 7 7 9 1 110 
7 8 7 3 7 8 1 110 
10 10 10 10 9 7 1 111 
7 9 9 5 8 10 1 112 
9 10 4 7 6 9 2 115 113 
3 7 8 10 7 8 1 116 
8 5 7 7 10 3 1 115 
6 7 6 7 7 10 1 117 
5 7 7 7 9 9 1 117 
0 0 0 0 0 0 1 702 
0 0 0 0 0 0 1 119 
8 7 5 4 4 3 2 124 120 
3 7 9 7 9 7 1 121 
10 7 7 4 5 10 1 122 
10 8 5 8 9 7 1 123 
6 6 10 10 10 10 2 128 125 
1 7 9 5 4 10 2 128 125 
10 10 8 8 9 4 1 126 
6 7 10 5 4 10 1 127 
6 10 8 6 10 6 1 129 
4 10 6 7 7 8 1 129 
1 10 6 8 10 5 1 130 
2 5 4 10 7 7 1 131 
6 4 6 7 10 4 2 133 132 
4 8 5 10 7 5 2 138 134 
2 10 5 10 7 7 1 134 
1 8 10 10 7 10 1 135 
1 5 9 4 8 7 1 136 
5 10 9 7 10 10 3 143 142 137 
10 9 9 10 6 7 2 145 139 
6 9 7 4 6 10 2 145 139 
9 7 8 8 10 6 2 140 660 
1 8 10 5 7 10 1 141 
6 6 4 3 7 4 2 146 144 
10 7 10 8 6 7 2 152 144 
3 9 5 6 5 10 1 145 
9 5 10 8 5 9 1 147 
6 5 9 6 4 9 1 147 
4 9 5 9 10 9 2 152 149 
10 5 8 9 10 7 1 148 
8 10 8 8 10 8 1 149 
5 8 8 8 5 10 1 150 
2 6 5 8 7 9 2 153 151 
4 6 5 10 10 5 2 158 154 
1 6 7 10 4 3 2 155 153 
10 6 7 9 10 5 2 158 156 
8 9 8 9 8 6 1 155 
9 8 7 6 9 9 1 156 
1 10 10 7 6 10 1 157 
3 9 5 10 9 5 2 163 159 
1 9 10 9 6 9 2 163 159 
7 8 8 7 5 10 1 160 
8 10 8 10 8 7 1 161 
7 10 7 6 6 6 1 162 
7 5 4 7 10 4 1 164 
7 5 7 6 7 9 1 164 
1 4 10 6 7 10 1 165 
1 10 10 8 8 10 2 168 166 
3 5 8 7 10 4 1 167 
3 7 7 8 9 8 1 169 
10 6 10 10 8 10 1 169 
0 0 0 0 0 0 1 702 
0 0 0 0 0 0 1 171 
1 1 6 3 4 8 1 172 
8 7 6 10 5 6 2 175 173 
7 6 3 8 6 7 1 174 
8 5 6 7 7 5 1 176 
2 6 8 6 4 5 1 176 
7 7 7 7 6 6 2 178 177 
3 10 7 5 9 7 1 179 
10 10 9 9 6 5 1 179 
3 8 10 8 7 10 1 180 
7 7 7 10 10 9 1 181 
4 5 6 9 7 5 1 182 
2 8 5 4 10 3 1 183 
8 8 10 10 2 9 2 185 184 
8 10 4 8 8 10 2 188 186 
10 8 6 10 6 5 1 186 
2 9 9 10 10 6 1 187 
4 6 5 9 4 9 1 189 
9 5 6 9 5 10 1 189 
6 9 4 6 8 8 2 192 190 
3 9 5 5 6 8 2 193 191 
6 10 7 5 7 10 2 196 195 
6 7 5 8 9 8 2 196 195 
1 9 10 9 10 10 1 194 
6 9 8 10 6 6 1 195 
4 5 6 3 7 8 2 198 197 
9 10 6 7 10 10 1 198 
3 8 9 8 7 8 2 201 200 
8 9 7 5 7 5 1 199 
10 9 9 8 9 8 1 200 
8 6 10 6 6 9 2 202 287 
10 4 8 8 8 8 1 202 
2 7 10 10 8 9 1 203 
5 10 8 7 10 10 2 206 204 
1 7 8 9 9 9 1 205 
4 7 10 8 8 8 2 209 207 
7 5 10 7 10 8 2 209 208 
9 5 7 9 4 10 1 208 
9 9 10 8 7 8 1 210 
10 6 10 8 8 10 1 210 
5 5 7 8 10 6 2 214 211 
6 8 10 10 10 8 1 212 
7 10 8 5 8 3 1 213 
5 10 8 8 9 3 1 215 
5 7 4 4 6 9 1 215 
9 9 10 5 10 6 1 216 
1 9 8 6 10 6 1 217 
10 10 8 8 10 7 2 220 218 
8 10 10 5 6 9 1 219 
5 7 5 10 9 9 1 221 
4 4 10 10 7 6 1 221 
0 0 0 0 0 0 1 702 
0 0 0 0 0 0 3 223 236 244 
6 0 4 1 5 3 1 224 
9 0 6 7 7 10 1 225 
3 0 7 7 5 9 1 226 
3 0 8 10 4 9 1 227 
9 0 5 7 7 6 2 238 228 
6 0 5 7 7 6 1 229 
8 0 9 6 7 10 1 230 
10 0 10 7 5 7 1 231 
5 0 3 7 8 9 1 232 
9 0 5 7 6 9 2 262 233 
7 0 7 6 10 6 1 234 
1 0 4 7 8 6 1 235 
5 0 9 9 9 9 2 261 237 
3 0 10 6 9 10 2 262 237 
1 0 6 7 10 10 3 260 254 239 
8 0 2 7 10 9 3 260 254 241 
1 0 10 6 7 7 1 240 
6 0 10 6 9 8 1 241 
9 0 10 10 7 6 1 242 
7 0 5 8 9 4 1 243 
1 0 8 4 10 9 2 259 245 
1 0 9 6 5 10 4 259 258 257 246 
7 0 8 10 10 6 3 258 257 246 
5 0 9 10 9 7 1 247 
3 0 10 6 4 7 1 248 
4 0 10 8 10 2 1 249 
10 0 9 6 6 6 1 250 
4 0 4 9 6 7 1 251 
7 0 7 10 10 7 1 252 
3 0 9 10 6 10 1 253 
5 0 10 10 6 10 1 255 
9 0 6 7 6 10 1 255 
5 0 6 9 7 4 1 256 
9 0 10 6 8 9 1 263 
4 0 7 10 10 7 1 263 
10 0 10 7 5 10 1 263 
7 0 7 8 10 7 2 263 630 
9 0 9 9 6 8 1 263 
10 0 7 7 9 7 1 263 
1 0 10 10 8 4 1 263 
0 0 0 0 0 0 1 702 
0 0 0 0 0 0 3 265 303 304 
7 5 1 7 6 0 1 266 
4 9 9 5 4 0 1 267 
10 9 9 8 5 0 3 302 301 268 
4 10 6 8 1 0 1 269 
4 9 7 9 5 0 1 270 
1 10 7 8 9 0 1 271 
4 7 10 10 9 0 1 272 
2 6 7 5 8 0 1 273 
7 3 8 4 2 0 1 274 
3 6 7 8 10 0 3 300 299 275 
2 8 9 10 10 0 2 298 276 
2 7 8 9 4 0 1 277 
3 9 5 10 10 0 1 278 
7 3 10 8 4 0 2 297 279 
10 8 8 10 5 0 2 280 656 
7 9 4 8 8 0 2 296 281 
10 7 5 7 10 0 2 295 282 
2 6 5 4 8 0 1 283 
5 4 9 9 10 0 1 284 
4 5 6 9 8 0 1 285 
3 6 9 8 9 0 1 286 
5 9 10 4 7 0 1 287 
6 10 10 7 9 0 1 288 
1 8 7 4 10 0 1 289 
9 8 9 8 4 0 1 290 
10 10 10 7 6 0 1 291 
6 6 9 7 10 0 1 292 
3 7 10 10 10 0 1 293 
3 8 5 8 10 0 1 294 
9 7 10 9 7 0 1 305 
2 10 6 9 10 0 1 305 
3 6 8 5 7 0 1 305 
3 10 5 7 10 0 1 305 
7 10 5 10 10 0 1 305 
4 10 5 5 6 0 1 305 
9 8 10 10 10 0 1 305 
10 6 9 7 6 0 1 305 
2 5 10 4 9 0 1 305 
6 6 9 10 7 0 1 305 
10 10 4 5 7 0 1 305 
0 0 0 0 0 0 1 702 
0 0 0 0 0 0 3 307 320 334 
9 6 5 4 0 2 1 308 
10 4 5 9 0 5 1 309 
10 10 5 5 0 10 1 310 
7 10 6 6 0 9 1 311 
7 7 7 7 0 10 2 328 312 
5 7 8 7 0 7 1 313 
7 3 6 10 0 9 1 314 
1 5 8 10 0 10 1 315 
1 5 8 4 0 10 2 346 316 
5 7 10 7 0 8 1 317 
5 6 10 10 0 10 1 318 
10 8 6 10 0 9 1 319 
7 5 4 10 0 6 2 345 321 
1 8 5 6 0 5 1 321 
4 9 9 7 0 6 3 344 343 322 
5 7 8 8 0 10 1 323 
2 10 9 7 0 9 1 324 
1 7 9 7 0 6 1 325 
5 10 4 8 0 10 1 326 
4 6 8 9 0 7 2 342 327 
7 10 9 8 0 10 3 341 340 329 
7 10 3 10 0 7 2 340 329 
8 5 10 4 0 5 1 330 
6 10 6 5 0 7 1 331 
1 3 10 7 0 2 1 332 
1 9 8 5 0 4 1 333 
4 10 8 7 0 9 1 335 
6 9 8 10 0 7 1 335 
9 5 7 9 0 7 1 336 
7 10 8 5 0 6 1 337 
10 8 9 6 0 8 1 338 
6 4 10 10 0 9 1 339 
9 6 10 10 0 6 1 347 
6 10 5 10 0 6 1 347 
1 9 6 6 0 6 1 347 
4 8 7 4 0 7 1 347 
1 10 8 10 0 8 1 347 
3 8 10 4 0 8 1 347 
5 6 10 9 0 10 2 347 663 
1 10 8 10 0 10 1 347 
0 0 0 0 0 0 1 702 
0 0 0 0 0 0 3 349 352 354 
1 0 6 6 2 8 1 350 
7 0 4 3 5 5 1 351 
4 0 9 6 4 10 1 353 
9 0 8 8 7 6 1 353 
5 0 9 7 5 8 1 355 
10 0 3 5 6 10 1 355 
8 0 7 8 8 7 1 356 
4 0 3 6 10 8 1 357 
5 0 7 10 10 6 2 360 358 
2 0 9 8 8 3 2 359 562 
6 0 9 3 7 5 1 361 
4 0 6 6 10 10 1 361 
5 0 4 2 6 10 1 362 
8 0 10 6 6 6 1 363 
2 0 5 10 7 9 1 364 
8 0 7 7 10 9 2 367 365 
2 0 6 8 10 6 2 369 366 
8 0 7 6 9 4 1 368 
5 0 7 8 10 8 3 388 375 371 
9 0 7 8 6 10 2 388 370 
7 0 8 10 9 10 2 388 372 
8 0 7 7 6 7 1 371 
8 0 8 5 10 10 1 372 
1 0 5 10 9 8 1 373 
1 0 5 10 4 9 1 374 
8 0 10 9 10 10 3 384 380 376 
4 0 10 10 7 4 3 384 380 376 
5 0 10 10 6 10 1 377 
1 0 10 10 6 4 2 383 378 
1 0 6 6 9 4 1 379 
7 0 8 7 10 10 1 381 
10 0 8 10 7 10 1 381 
7 0 10 7 5 6 1 382 
3 0 10 10 8 2 1 385 
8 0 10 9 10 7 1 385 
3 0 10 6 7 7 1 385 
4 0 10 7 6 10 1 386 
10 0 10 10 6 9 1 387 
10 0 8 8 9 8 1 389 
3 0 4 8 10 7 1 389 
0 0 0 0 0 0 1 702 
0 0 0 0 0 0 1 391 
6 3 0 0 0 0 1 392 
2 10 0 0 0 0 2 398 393 
5 4 0 0 0 0 2 395 394 
6 10 0 0 0 0 2 397 396 
3 6 0 0 0 0 2 397 396 
1 9 0 0 0 0 1 399 
2 7 0 0 0 0 1 399 
4 9 0 0 0 0 1 399 
6 9 0 0 0 0 2 400 659 
6 8 0 0 0 0 1 401 
0 0 0 0 0 0 5 402 434 446 478 510 
0 0 0 0 0 0 3 403 431 432 
10 5 0 0 2 3 1 404 
5 4 0 0 10 10 1 405 
8 10 0 0 7 5 3 430 429 406 
4 9 0 0 6 10 1 407 
3 10 0 0 9 7 2 428 408 
10 8 0 0 8 6 3 427 426 409 
9 10 0 0 10 6 1 410 
10 7 0 0 5 9 1 411 
9 8 0 0 9 8 1 412 
6 4 0 0 10 6 1 413 
10 10 0 0 6 8 1 414 
10 8 0 0 9 5 2 425 415 
8 5 0 0 7 7 1 416 
10 9 0 0 10 7 1 417 
1 5 0 0 8 8 1 418 
2 9 0 0 6 10 2 419 591 
9 8 0 0 7 6 1 420 
10 10 0 0 10 10 1 421 
1 8 0 0 8 10 1 422 
2 5 0 0 4 6 1 423 
8 9 0 0 6 10 1 424 
8 9 0 0 8 7 1 433 
8 7 0 0 10 6 1 433 
10 5 0 0 10 5 1 433 
9 10 0 0 3 9 1 433 
6 4 0 0 6 10 1 433 
6 4 0 0 5 6 1 433 
1 8 0 0 10 6 1 433 
8 7 0 0 10 10 1 433 
5 10 0 0 6 9 1 433 
0 0 0 0 0 0 1 702 
0 0 0 0 0 0 3 435 439 443 
5 0 0 1 0 0 2 441 436 
10 0 0 8 0 0 1 437 
1 0 0 7 0 0 1 438 
6 0 0 7 0 0 1 440 
3 0 0 10 0 0 1 440 
9 0 0 10 0 0 1 442 
8 0 0 6 0 0 1 442 
6 0 0 10 0 0 1 444 
10 0 0 9 0 0 2 444 523 
6 0 0 7 0 0 1 445 
0 0 0 0 0 0 5 542 564 586 598 620 
0 0 0 0 0 0 2 447 476 
9 3 0 3 1 0 1 448 
2 8 0 3 6 0 1 449 
5 8 0 9 6 0 1 450 
6 7 0 8 8 0 1 451 
9 9 0 10 10 0 2 475 452 
6 6 0 4 6 0 1 453 
3 10 0 9 8 0 1 454 
6 7 0 5 9 0 4 466 459 457 455 
4 4 0 7 7 0 1 456 
8 5 0 10 9 0 3 463 461 458 
6 10 0 8 8 0 2 463 462 
5 4 0 6 5 0 1 460 
10 9 0 8 8 0 1 460 
10 10 0 6 10 0 1 462 
4 5 0 10 9 0 1 462 
5 10 0 8 6 0 1 464 
8 10 0 7 7 0 1 464 
3 6 0 8 7 0 1 465 
2 3 0 9 6 0 2 474 467 
6 9 0 6 10 0 2 474 467 
3 9 0 6 7 0 1 468 
10 9 0 7 6 0 1 469 
9 8 0 10 7 0 1 470 
6 7 0 9 9 0 1 471 
1 10 0 10 10 0 1 472 
4 6 0 8 4 0 1 473 
2 10 0 10 10 0 1 477 
4 8 0 6 6 0 1 477 
6 5 0 5 10 0 2 477 515 
5 10 0 10 10 0 1 477 
0 0 0 0 0 0 1 702 
0 0 0 0 0 0 1 479 
3 0 4 2 3 0 1 480 
7 0 4 6 6 0 2 482 481 
6 0 7 9 6 0 2 484 483 
6 0 3 8 6 0 1 483 
3 0 6 10 7 0 1 485 
6 0 10 8 10 0 1 485 
10 0 10 4 8 0 2 488 486 
2 0 10 6 6 0 1 487 
10 0 5 10 10 0 1 489 
7 0 8 5 6 0 1 489 
6 0 10 6 7 0 3 493 491 490 
6 0 7 9 10 0 1 492 
8 0 8 10 6 0 1 492 
4 0 8 3 9 0 2 495 494 
1 0 9 5 10 0 1 494 
7 0 6 10 10 0 1 496 
4 0 10 9 9 0 1 496 
3 0 10 8 9 0 2 499 497 
6 0 3 2 1 0 1 498 
8 0 8 10 10 0 2 501 500 
8 0 8 10 6 0 2 501 500 
5 0 9 5 5 0 1 502 
5 0 8 9 9 0 1 502 
6 0 7 6 7 0 1 503 
10 0 8 7 10 0 1 504 
2 0 8 9 8 0 1 505 
4 0 9 9 9 0 1 506 
4 0 5 10 6 0 2 507 667 
4 0 10 10 9 0 1 508 
3 0 7 10 7 0 1 509 
0 0 0 0 0 0 1 702 
0 0 0 0 0 0 2 511 540 
2 3 6 0 3 0 1 512 
3 5 5 0 10 0 1 513 
4 10 10 0 7 0 1 514 
7 10 10 0 10 0 1 515 
8 7 7 0 8 0 2 539 516 
4 10 7 0 9 0 1 517 
3 6 3 0 3 0 1 518 
3 7 7 0 5 0 5 538 537 536 524 519 
4 7 9 0 10 0 1 520 
4 5 7 0 10 0 2 527 521 
3 10 6 0 8 0 1 522 
5 10 10 0 6 0 1 523 
7 4 10 0 7 0 2 535 525 
3 10 10 0 10 0 2 535 526 
9 9 8 0 10 0 1 526 
9 6 4 0 8 0 1 528 
10 10 10 0 6 0 1 528 
7 7 7 0 9 0 1 529 
1 9 10 0 6 0 1 530 
8 9 4 0 9 0 1 531 
4 8 3 0 8 0 1 532 
9 6 8 0 6 0 2 533 590 
8 10 10 0 10 0 1 534 
9 2 8 0 7 0 1 541 
7 6 10 0 8 0 1 541 
2 10 9 0 6 0 1 541 
3 5 9 0 6 0 1 541 
5 8 7 0 7 0 1 541 
1 9 4 0 5 0 1 541 
1 7 7 0 8 0 1 541 
0 0 0 0 0 0 1 702 
0 0 0 0 0 0 3 543 561 562 
1 6 3 0 0 0 2 554 544 
4 8 4 0 0 0 2 560 545 
8 5 6 0 0 0 1 546 
2 7 9 0 0 0 1 547 
3 3 9 0 0 0 1 548 
5 7 7 0 0 0 2 559 549 
7 9 7 0 0 0 1 550 
4 8 9 0 0 0 1 551 
7 6 8 0 0 0 1 552 
9 10 9 0 0 0 1 553 
6 4 10 0 0 0 2 555 662 
5 5 5 0 0 0 1 555 
8 9 10 0 0 0 1 556 
4 10 10 0 0 0 1 557 
2 8 5 0 0 0 1 558 
1 9 8 0 0 0 1 563 
8 10 6 0 0 0 1 563 
4 10 10 0 0 0 1 563 
4 6 6 0 0 0 1 563 
1 10 9 0 0 0 1 563 
0 0 0 0 0 0 1 702 
0 0 0 0 0 0 3 565 568 628 
4 4 3 0 0 0 1 566 
5 10 5 0 0 0 2 578 567 
3 6 10 0 0 0 3 582 572 569 
4 10 6 0 0 0 3 582 572 571 
3 9 8 0 0 0 1 570 
6 6 8 0 0 0 1 571 
7 7 10 0 0 0 1 573 
6 9 9 0 0 0 1 573 
2 9 9 0 0 0 1 574 
6 10 6 0 0 0 1 575 
8 1 2 0 0 0 1 576 
5 5 10 0 0 0 2 584 577 
6 9 9 0 0 0 1 579 
6 10 5 0 0 0 1 579 
4 10 9 0 0 0 1 580 
9 6 8 0 0 0 1 581 
7 6 9 0 0 0 1 583 
6 5 9 0 0 0 1 583 
2 10 6 0 0 0 1 585 
3 8 9 0 0 0 1 585 
0 0 0 0 0 0 1 702 
0 0 0 0 0 0 2 587 590 
8 0 0 0 7 0 3 594 592 588 
9 0 0 0 4 0 1 589 
3 0 0 0 8 0 2 591 700 
6 0 0 0 10 0 1 591 
5 0 0 0 7 0 1 593 
8 0 0 0 10 0 1 593 
3 0 0 0 7 0 1 595 
6 0 0 0 8 0 1 595 
8 0 0 0 6 0 1 596 
7 0 0 0 8 0 1 597 
0 0 0 0 0 0 5 642 654 666 678 690 
0 0 0 0 0 0 3 599 609 612 
1 0 3 0 0 2 3 618 617 600 
6 0 6 0 0 9 1 601 
7 0 9 0 0 2 1 602 
7 0 7 0 0 10 1 603 
5 0 9 0 0 8 1 604 
8 0 6 0 0 7 1 605 
10 0 10 0 0 10 2 616 606 
2 0 6 0 0 7 1 607 
5 0 7 0 0 5 1 608 
1 0 7 0 0 10 1 610 
3 0 10 0 0 7 1 610 
3 0 10 0 0 10 1 611 
6 0 10 0 0 8 1 613 
10 0 10 0 0 10 2 617 615 
6 0 7 0 0 10 1 614 
2 0 7 0 0 10 1 615 
1 0 10 0 0 7 1 619 
3 0 5 0 0 5 1 619 
5 0 6 0 0 6 1 619 
2 0 5 0 0 7 1 619 
0 0 0 0 0 0 1 702 
0 0 0 0 0 0 2 621 623 
7 8 0 3 0 0 2 629 622 
2 7 0 10 0 0 1 625 
6 3 0 7 0 0 1 624 
2 5 0 7 0 0 2 629 627 
2 8 0 10 0 0 1 626 
3 10 0 8 0 0 1 627 
1 6 0 9 0 0 1 628 
2 7 0 5 0 0 2 633 630 
1 8 0 4 0 0 2 633 630 
5 8 0 7 0 0 1 631 
5 7 0 8 0 0 1 632 
8 6 0 7 0 0 1 634 
10 10 0 4 0 0 1 634 
9 10 0 10 0 0 2 640 635 
6 6 0 8 0 0 1 636 
2 10 0 10 0 0 1 637 
6 5 0 8 0 0 1 638 
9 7 0 9 0 0 1 639 
10 9 0 6 0 0 1 641 
7 10 0 10 0 0 1 641 
0 0 0 0 0 0 1 702 
0 0 0 0 0 0 3 643 648 652 
6 4 0 0 0 0 2 650 644 
8 5 0 0 0 0 1 645 
3 10 0 0 0 0 1 646 
2 7 0 0 0 0 1 647 
1 10 0 0 0 0 1 649 
10 8 0 0 0 0 1 649 
1 8 0 0 0 0 1 651 
2 10 0 0 0 0 1 651 
8 3 0 0 0 0 1 653 
1 10 0 0 0 0 1 653 
0 0 0 0 0 0 1 702 
0 0 0 0 0 0 3 655 661 663 
9 0 0 0 0 3 2 659 656 
5 0 0 0 0 7 1 657 
2 0 0 0 0 6 1 658 
3 0 0 0 0 8 1 660 
9 0 0 0 0 7 1 660 
7 0 0 0 0 6 1 662 
8 0 0 0 0 8 1 662 
2 0 0 0 0 10 1 664 
8 0 0 0 0 10 1 664 
10 0 0 0 0 10 1 665 
0 0 0 0 0 0 1 702 
0 0 0 0 0 0 2 667 676 
4 0 0 0 4 0 1 668 
4 0 0 0 6 0 2 675 669 
6 0 0 0 10 0 1 670 
10 0 0 0 8 0 1 671 
4 0 0 0 2 0 2 674 672 
6 0 0 0 10 0 1 673 
3 0 0 0 8 0 1 677 
2 0 0 0 10 0 1 677 
10 0 0 0 10 0 1 677 
9 0 0 0 7 0 1 677 
0 0 0 0 0 0 1 702 
0 0 0 0 0 0 3 679 680 683 
10 0 0 0 7 0 2 688 682 
7 0 0 0 4 0 1 681 
2 0 0 0 9 0 1 682 
4 0 0 0 9 0 1 684 
10 0 0 0 7 0 1 684 
1 0 0 0 9 0 1 685 
7 0 0 0 8 0 1 686 
2 0 0 0 6 0 1 687 
3 0 0 0 6 0 1 689 
9 0 0 0 10 0 1 689 
0 0 0 0 0 0 1 702 
0 0 0 0 0 0 2 691 692 
6 0 0 0 3 0 2 698 693 
9 0 0 0 7 0 2 698 694 
10 0 0 0 6 0 1 694 
6 0 0 0 5 0 1 695 
9 0 0 0 7 0 1 696 
1 0 0 0 10 0 2 700 697 
9 0 0 0 10 0 1 699 
6 0 0 0 8 0 1 699 
9 0 0 0 10 0 1 701 
3 0 0 0 9 0 1 701 
0 0 0 0 0 0 1 702 
0 0 0 0 0 0 0 
